sat
(objectives
 (total_wait 25)
)
((rprim_1_1 17))
((rprim_1_2 20))
((rprim_1_3 3))
((rprim_1_4 1))
((rprim_1_5 15))
((rprim_1_6 1))
((rprim_1_7 18))
((rprim_1_8 17))
((rprim_1_9 1))
((rprim_1_10 20))
((rprim_1_11 1))
((rprim_1_12 15))
((rprim_1_13 1))
((rprim_1_14 9))
((rprim_1_15 18))
((rprim_1_16 17))
((rprim_1_17 13))
((rprim_1_18 19))
((rprim_1_19 14))
((rprim_1_20 1))
((rprim_1_21 1))
((rprim_1_22 1))
((rprim_1_23 20))
((rprim_1_24 8))
((rprim_1_25 19))
((rprim_1_26 15))
((rprim_1_27 15))
((rprim_1_28 1))
((rprim_1_29 1))
((rprim_2_1 1))
((rprim_2_2 18))
((rprim_2_3 1))
((rprim_2_4 15))
((rprim_2_5 19))
((rprim_2_6 1))
((rprim_2_7 15))
((rprim_2_8 7))
((rprim_2_9 1))
((rprim_2_10 18))
((rprim_2_11 17))
((rprim_2_12 1))
((rprim_2_13 1))
((rprim_2_14 1))
((rprim_2_15 15))
((rprim_2_16 12))
((rprim_2_17 20))
((rprim_2_18 1))
((rprim_2_19 1))
((rprim_2_20 16))
((rprim_2_21 21))
((rprim_2_22 21))
((rprim_2_23 1))
((rprim_2_24 19))
((rprim_2_25 19))
((rprim_2_26 1))
((rprim_2_27 1))
((rprim_2_28 1))
((rprim_2_29 1))
((rx_1_1 8))
((ry_1_1 7))
((rx_1_2 10))
((ry_1_2 5))
((rx_1_3 7))
((ry_1_3 5))
((rx_1_4 7))
((ry_1_4 4))
((rx_1_5 7))
((ry_1_5 4))
((rx_1_6 5))
((ry_1_6 6))
((rx_1_7 5))
((ry_1_7 6))
((rx_1_8 8))
((ry_1_8 6))
((rx_1_9 10))
((ry_1_9 4))
((rx_1_10 10))
((ry_1_10 4))
((rx_1_11 7))
((ry_1_11 4))
((rx_1_12 7))
((ry_1_12 4))
((rx_1_13 5))
((ry_1_13 6))
((rx_1_14 5))
((ry_1_14 6))
((rx_1_15 6))
((ry_1_15 5))
((rx_1_16 9))
((ry_1_16 5))
((rx_1_17 11))
((ry_1_17 3))
((rx_1_18 11))
((ry_1_18 1))
((rx_1_19 11))
((ry_1_19 4))
((rx_1_20 13))
((ry_1_20 6))
((rx_1_21 13))
((ry_1_21 6))
((rx_1_22 13))
((ry_1_22 6))
((rx_1_23 13))
((ry_1_23 6))
((rx_1_24 10))
((ry_1_24 6))
((rx_1_25 9))
((ry_1_25 5))
((rx_1_26 9))
((ry_1_26 8))
((rx_1_27 7))
((ry_1_27 10))
((rx_1_28 5))
((ry_1_28 12))
((rx_1_29 5))
((ry_1_29 12))
((rx_1_30 5))
((ry_1_30 12))
((rx_2_1 7))
((ry_2_1 4))
((rx_2_2 7))
((ry_2_2 4))
((rx_2_3 10))
((ry_2_3 4))
((rx_2_4 10))
((ry_2_4 4))
((rx_2_5 8))
((ry_2_5 6))
((rx_2_6 8))
((ry_2_6 9))
((rx_2_7 8))
((ry_2_7 9))
((rx_2_8 6))
((ry_2_8 11))
((rx_2_9 5))
((ry_2_9 12))
((rx_2_10 5))
((ry_2_10 12))
((rx_2_11 8))
((ry_2_11 12))
((rx_2_12 10))
((ry_2_12 10))
((rx_2_13 10))
((ry_2_13 10))
((rx_2_14 10))
((ry_2_14 10))
((rx_2_15 10))
((ry_2_15 10))
((rx_2_16 8))
((ry_2_16 12))
((rx_2_17 6))
((ry_2_17 12))
((rx_2_18 3))
((ry_2_18 12))
((rx_2_19 3))
((ry_2_19 12))
((rx_2_20 3))
((ry_2_20 12))
((rx_2_21 1))
((ry_2_21 10))
((rx_2_22 1))
((ry_2_22 7))
((rx_2_23 1))
((ry_2_23 4))
((rx_2_24 1))
((ry_2_24 4))
((rx_2_25 1))
((ry_2_25 7))
((rx_2_26 1))
((ry_2_26 10))
((rx_2_27 1))
((ry_2_27 10))
((rx_2_28 1))
((ry_2_28 10))
((rx_2_29 1))
((ry_2_29 10))
((rx_2_30 1))
((ry_2_30 10))
((total_rcost 0))
((wprim_1_1 1))
((wprim_1_2 1))
((wprim_1_3 1))
((wprim_1_4 1))
((wprim_1_5 1))
((wprim_1_6 2))
((wprim_1_7 1))
((wprim_1_8 1))
((wprim_1_9 1))
((wprim_1_10 0))
((wprim_1_11 2))
((wprim_1_12 1))
((wprim_1_13 2))
((wprim_1_14 1))
((wprim_1_15 1))
((wprim_1_16 1))
((wprim_1_17 1))
((wprim_1_18 1))
((wprim_1_19 1))
((wprim_1_20 1))
((wprim_1_21 1))
((wprim_1_22 1))
((wprim_1_23 2))
((wprim_1_24 1))
((wprim_1_25 1))
((wprim_1_26 1))
((wprim_1_27 1))
((wprim_1_28 1))
((wprim_1_29 1))
((wprim_2_1 0))
((wprim_2_2 0))
((wprim_2_3 1))
((wprim_2_4 1))
((wprim_2_5 1))
((wprim_2_6 1))
((wprim_2_7 1))
((wprim_2_8 1))
((wprim_2_9 2))
((wprim_2_10 1))
((wprim_2_11 1))
((wprim_2_12 1))
((wprim_2_13 1))
((wprim_2_14 1))
((wprim_2_15 1))
((wprim_2_16 1))
((wprim_2_17 1))
((wprim_2_18 1))
((wprim_2_19 1))
((wprim_2_20 1))
((wprim_2_21 2))
((wprim_2_22 2))
((wprim_2_23 1))
((wprim_2_24 1))
((wprim_2_25 1))
((wprim_2_26 1))
((wprim_2_27 1))
((wprim_2_28 1))
((wprim_2_29 1))
((wprim_3_1 1))
((wprim_3_2 1))
((wprim_3_3 1))
((wprim_3_4 1))
((wprim_3_5 1))
((wprim_3_6 1))
((wprim_3_7 1))
((wprim_3_8 1))
((wprim_3_9 1))
((wprim_3_10 0))
((wprim_3_11 1))
((wprim_3_12 2))
((wprim_3_13 2))
((wprim_3_14 1))
((wprim_3_15 1))
((wprim_3_16 0))
((wprim_3_17 1))
((wprim_3_18 1))
((wprim_3_19 1))
((wprim_3_20 2))
((wprim_3_21 1))
((wprim_3_22 1))
((wprim_3_23 1))
((wprim_3_24 1))
((wprim_3_25 1))
((wprim_3_26 1))
((wprim_3_27 1))
((wprim_3_28 1))
((wprim_3_29 1))
((wprim_4_1 1))
((wprim_4_2 1))
((wprim_4_3 1))
((wprim_4_4 1))
((wprim_4_5 1))
((wprim_4_6 1))
((wprim_4_7 1))
((wprim_4_8 1))
((wprim_4_9 1))
((wprim_4_10 1))
((wprim_4_11 0))
((wprim_4_12 1))
((wprim_4_13 2))
((wprim_4_14 1))
((wprim_4_15 1))
((wprim_4_16 1))
((wprim_4_17 0))
((wprim_4_18 2))
((wprim_4_19 1))
((wprim_4_20 1))
((wprim_4_21 1))
((wprim_4_22 1))
((wprim_4_23 1))
((wprim_4_24 1))
((wprim_4_25 1))
((wprim_4_26 2))
((wprim_4_27 1))
((wprim_4_28 1))
((wprim_4_29 1))
((wprim_5_1 1))
((wprim_5_2 1))
((wprim_5_3 1))
((wprim_5_4 1))
((wprim_5_5 1))
((wprim_5_6 1))
((wprim_5_7 1))
((wprim_5_8 0))
((wprim_5_9 2))
((wprim_5_10 1))
((wprim_5_11 1))
((wprim_5_12 1))
((wprim_5_13 1))
((wprim_5_14 1))
((wprim_5_15 1))
((wprim_5_16 1))
((wprim_5_17 1))
((wprim_5_18 2))
((wprim_5_19 2))
((wprim_5_20 1))
((wprim_5_21 1))
((wprim_5_22 1))
((wprim_5_23 1))
((wprim_5_24 1))
((wprim_5_25 1))
((wprim_5_26 1))
((wprim_5_27 1))
((wprim_5_28 2))
((wprim_5_29 1))
((wtraj_1_1 1))
((wtraj_1_2 2))
((wtraj_1_3 3))
((wtraj_1_4 4))
((wtraj_1_5 1))
((wtraj_1_6 2))
((wtraj_1_7 2))
((wtraj_1_8 3))
((wtraj_1_9 4))
((wtraj_1_10 1))
((wtraj_1_11 1))
((wtraj_1_12 1))
((wtraj_1_13 2))
((wtraj_1_14 2))
((wtraj_1_15 3))
((wtraj_1_16 4))
((wtraj_1_17 1))
((wtraj_1_18 2))
((wtraj_1_19 3))
((wtraj_1_20 4))
((wtraj_1_21 1))
((wtraj_1_22 2))
((wtraj_1_23 3))
((wtraj_1_24 3))
((wtraj_1_25 4))
((wtraj_1_26 1))
((wtraj_1_27 2))
((wtraj_1_28 3))
((wtraj_1_29 4))
((wtraj_1_30 1))
((wtraj_2_1 1))
((wtraj_2_2 1))
((wtraj_2_3 1))
((wtraj_2_4 2))
((wtraj_2_5 3))
((wtraj_2_6 4))
((wtraj_2_7 5))
((wtraj_2_8 6))
((wtraj_2_9 1))
((wtraj_2_10 1))
((wtraj_2_11 2))
((wtraj_2_12 3))
((wtraj_2_13 4))
((wtraj_2_14 5))
((wtraj_2_15 6))
((wtraj_2_16 1))
((wtraj_2_17 2))
((wtraj_2_18 3))
((wtraj_2_19 4))
((wtraj_2_20 5))
((wtraj_2_21 6))
((wtraj_2_22 6))
((wtraj_2_23 6))
((wtraj_2_24 1))
((wtraj_2_25 2))
((wtraj_2_26 3))
((wtraj_2_27 4))
((wtraj_2_28 5))
((wtraj_2_29 6))
((wtraj_2_30 1))
((wtraj_3_1 1))
((wtraj_3_2 2))
((wtraj_3_3 3))
((wtraj_3_4 4))
((wtraj_3_5 1))
((wtraj_3_6 2))
((wtraj_3_7 3))
((wtraj_3_8 4))
((wtraj_3_9 1))
((wtraj_3_10 2))
((wtraj_3_11 2))
((wtraj_3_12 3))
((wtraj_3_13 3))
((wtraj_3_14 3))
((wtraj_3_15 4))
((wtraj_3_16 1))
((wtraj_3_17 1))
((wtraj_3_18 2))
((wtraj_3_19 3))
((wtraj_3_20 4))
((wtraj_3_21 4))
((wtraj_3_22 1))
((wtraj_3_23 2))
((wtraj_3_24 3))
((wtraj_3_25 4))
((wtraj_3_26 1))
((wtraj_3_27 2))
((wtraj_3_28 3))
((wtraj_3_29 4))
((wtraj_3_30 1))
((wtraj_4_1 1))
((wtraj_4_2 2))
((wtraj_4_3 3))
((wtraj_4_4 4))
((wtraj_4_5 5))
((wtraj_4_6 6))
((wtraj_4_7 1))
((wtraj_4_8 2))
((wtraj_4_9 3))
((wtraj_4_10 4))
((wtraj_4_11 5))
((wtraj_4_12 5))
((wtraj_4_13 6))
((wtraj_4_14 6))
((wtraj_4_15 1))
((wtraj_4_16 2))
((wtraj_4_17 3))
((wtraj_4_18 3))
((wtraj_4_19 3))
((wtraj_4_20 4))
((wtraj_4_21 5))
((wtraj_4_22 6))
((wtraj_4_23 1))
((wtraj_4_24 2))
((wtraj_4_25 3))
((wtraj_4_26 4))
((wtraj_4_27 4))
((wtraj_4_28 5))
((wtraj_4_29 6))
((wtraj_4_30 1))
((wtraj_5_1 1))
((wtraj_5_2 2))
((wtraj_5_3 3))
((wtraj_5_4 4))
((wtraj_5_5 1))
((wtraj_5_6 2))
((wtraj_5_7 3))
((wtraj_5_8 4))
((wtraj_5_9 4))
((wtraj_5_10 4))
((wtraj_5_11 1))
((wtraj_5_12 2))
((wtraj_5_13 3))
((wtraj_5_14 4))
((wtraj_5_15 1))
((wtraj_5_16 2))
((wtraj_5_17 3))
((wtraj_5_18 4))
((wtraj_5_19 4))
((wtraj_5_20 4))
((wtraj_5_21 1))
((wtraj_5_22 2))
((wtraj_5_23 3))
((wtraj_5_24 4))
((wtraj_5_25 1))
((wtraj_5_26 2))
((wtraj_5_27 3))
((wtraj_5_28 4))
((wtraj_5_29 4))
((wtraj_5_30 1))
((wx_1_1 7))
((wy_1_1 3))
((wx_1_2 4))
((wy_1_2 5))
((wx_1_3 1))
((wy_1_3 3))
((wx_1_4 4))
((wy_1_4 1))
((wx_1_5 7))
((wy_1_5 3))
((wx_1_6 4))
((wy_1_6 5))
((wx_1_7 4))
((wy_1_7 5))
((wx_1_8 1))
((wy_1_8 3))
((wx_1_9 4))
((wy_1_9 1))
((wx_1_10 7))
((wy_1_10 3))
((wx_1_11 7))
((wy_1_11 3))
((wx_1_12 7))
((wy_1_12 3))
((wx_1_13 4))
((wy_1_13 5))
((wx_1_14 4))
((wy_1_14 5))
((wx_1_15 1))
((wy_1_15 3))
((wx_1_16 4))
((wy_1_16 1))
((wx_1_17 7))
((wy_1_17 3))
((wx_1_18 4))
((wy_1_18 5))
((wx_1_19 1))
((wy_1_19 3))
((wx_1_20 4))
((wy_1_20 1))
((wx_1_21 7))
((wy_1_21 3))
((wx_1_22 4))
((wy_1_22 5))
((wx_1_23 1))
((wy_1_23 3))
((wx_1_24 1))
((wy_1_24 3))
((wx_1_25 4))
((wy_1_25 1))
((wx_1_26 7))
((wy_1_26 3))
((wx_1_27 4))
((wy_1_27 5))
((wx_1_28 1))
((wy_1_28 3))
((wx_1_29 4))
((wy_1_29 1))
((wx_1_30 7))
((wy_1_30 3))
((wx_2_1 11))
((wy_2_1 3))
((wx_2_2 11))
((wy_2_2 3))
((wx_2_3 11))
((wy_2_3 3))
((wx_2_4 13))
((wy_2_4 1))
((wx_2_5 15))
((wy_2_5 1))
((wx_2_6 17))
((wy_2_6 3))
((wx_2_7 15))
((wy_2_7 5))
((wx_2_8 13))
((wy_2_8 5))
((wx_2_9 11))
((wy_2_9 3))
((wx_2_10 11))
((wy_2_10 3))
((wx_2_11 13))
((wy_2_11 1))
((wx_2_12 15))
((wy_2_12 1))
((wx_2_13 17))
((wy_2_13 3))
((wx_2_14 15))
((wy_2_14 5))
((wx_2_15 13))
((wy_2_15 5))
((wx_2_16 11))
((wy_2_16 3))
((wx_2_17 13))
((wy_2_17 1))
((wx_2_18 15))
((wy_2_18 1))
((wx_2_19 17))
((wy_2_19 3))
((wx_2_20 15))
((wy_2_20 5))
((wx_2_21 13))
((wy_2_21 5))
((wx_2_22 13))
((wy_2_22 5))
((wx_2_23 13))
((wy_2_23 5))
((wx_2_24 11))
((wy_2_24 3))
((wx_2_25 13))
((wy_2_25 1))
((wx_2_26 15))
((wy_2_26 1))
((wx_2_27 17))
((wy_2_27 3))
((wx_2_28 15))
((wy_2_28 5))
((wx_2_29 13))
((wy_2_29 5))
((wx_2_30 11))
((wy_2_30 3))
((wx_3_1 17))
((wy_3_1 9))
((wx_3_2 14))
((wy_3_2 11))
((wx_3_3 11))
((wy_3_3 9))
((wx_3_4 14))
((wy_3_4 7))
((wx_3_5 17))
((wy_3_5 9))
((wx_3_6 14))
((wy_3_6 11))
((wx_3_7 11))
((wy_3_7 9))
((wx_3_8 14))
((wy_3_8 7))
((wx_3_9 17))
((wy_3_9 9))
((wx_3_10 14))
((wy_3_10 11))
((wx_3_11 14))
((wy_3_11 11))
((wx_3_12 11))
((wy_3_12 9))
((wx_3_13 11))
((wy_3_13 9))
((wx_3_14 11))
((wy_3_14 9))
((wx_3_15 14))
((wy_3_15 7))
((wx_3_16 17))
((wy_3_16 9))
((wx_3_17 17))
((wy_3_17 9))
((wx_3_18 14))
((wy_3_18 11))
((wx_3_19 11))
((wy_3_19 9))
((wx_3_20 14))
((wy_3_20 7))
((wx_3_21 14))
((wy_3_21 7))
((wx_3_22 17))
((wy_3_22 9))
((wx_3_23 14))
((wy_3_23 11))
((wx_3_24 11))
((wy_3_24 9))
((wx_3_25 14))
((wy_3_25 7))
((wx_3_26 17))
((wy_3_26 9))
((wx_3_27 14))
((wy_3_27 11))
((wx_3_28 11))
((wy_3_28 9))
((wx_3_29 14))
((wy_3_29 7))
((wx_3_30 17))
((wy_3_30 9))
((wx_4_1 7))
((wy_4_1 9))
((wx_4_2 5))
((wy_4_2 11))
((wx_4_3 3))
((wy_4_3 11))
((wx_4_4 1))
((wy_4_4 9))
((wx_4_5 3))
((wy_4_5 7))
((wx_4_6 5))
((wy_4_6 7))
((wx_4_7 7))
((wy_4_7 9))
((wx_4_8 5))
((wy_4_8 11))
((wx_4_9 3))
((wy_4_9 11))
((wx_4_10 1))
((wy_4_10 9))
((wx_4_11 3))
((wy_4_11 7))
((wx_4_12 3))
((wy_4_12 7))
((wx_4_13 5))
((wy_4_13 7))
((wx_4_14 5))
((wy_4_14 7))
((wx_4_15 7))
((wy_4_15 9))
((wx_4_16 5))
((wy_4_16 11))
((wx_4_17 3))
((wy_4_17 11))
((wx_4_18 3))
((wy_4_18 11))
((wx_4_19 3))
((wy_4_19 11))
((wx_4_20 1))
((wy_4_20 9))
((wx_4_21 3))
((wy_4_21 7))
((wx_4_22 5))
((wy_4_22 7))
((wx_4_23 7))
((wy_4_23 9))
((wx_4_24 5))
((wy_4_24 11))
((wx_4_25 3))
((wy_4_25 11))
((wx_4_26 1))
((wy_4_26 9))
((wx_4_27 1))
((wy_4_27 9))
((wx_4_28 3))
((wy_4_28 7))
((wx_4_29 5))
((wy_4_29 7))
((wx_4_30 7))
((wy_4_30 9))
((wx_5_1 7))
((wy_5_1 15))
((wx_5_2 4))
((wy_5_2 17))
((wx_5_3 1))
((wy_5_3 15))
((wx_5_4 4))
((wy_5_4 13))
((wx_5_5 7))
((wy_5_5 15))
((wx_5_6 4))
((wy_5_6 17))
((wx_5_7 1))
((wy_5_7 15))
((wx_5_8 4))
((wy_5_8 13))
((wx_5_9 4))
((wy_5_9 13))
((wx_5_10 4))
((wy_5_10 13))
((wx_5_11 7))
((wy_5_11 15))
((wx_5_12 4))
((wy_5_12 17))
((wx_5_13 1))
((wy_5_13 15))
((wx_5_14 4))
((wy_5_14 13))
((wx_5_15 7))
((wy_5_15 15))
((wx_5_16 4))
((wy_5_16 17))
((wx_5_17 1))
((wy_5_17 15))
((wx_5_18 4))
((wy_5_18 13))
((wx_5_19 4))
((wy_5_19 13))
((wx_5_20 4))
((wy_5_20 13))
((wx_5_21 7))
((wy_5_21 15))
((wx_5_22 4))
((wy_5_22 17))
((wx_5_23 1))
((wy_5_23 15))
((wx_5_24 4))
((wy_5_24 13))
((wx_5_25 7))
((wy_5_25 15))
((wx_5_26 4))
((wy_5_26 17))
((wx_5_27 1))
((wy_5_27 15))
((wx_5_28 4))
((wy_5_28 13))
((wx_5_29 4))
((wy_5_29 13))
((wx_5_30 7))
((wy_5_30 15))
((ch_1_1 20))
((ch_1_2 18))
((ch_1_3 16))
((ch_1_4 14))
((ch_1_5 12))
((ch_1_6 10))
((ch_1_7 11))
((ch_1_8 9))
((ch_1_9 7))
((ch_1_10 5))
((ch_1_11 5))
((ch_1_12 12))
((ch_1_13 10))
((ch_1_14 20))
((ch_1_15 18))
((ch_1_16 16))
((ch_1_17 14))
((ch_1_18 12))
((ch_1_19 10))
((ch_1_20 8))
((ch_1_21 6))
((ch_1_22 4))
((ch_1_23 2))
((ch_1_24 12))
((ch_1_25 10))
((ch_1_26 8))
((ch_1_27 6))
((ch_1_28 4))
((ch_1_29 2))
((ch_1_30 0))
((ch_2_1 20))
((ch_2_2 20))
((ch_2_3 20))
((ch_2_4 18))
((ch_2_5 16))
((ch_2_6 15))
((ch_2_7 13))
((ch_2_8 11))
((ch_2_9 10))
((ch_2_10 18))
((ch_2_11 16))
((ch_2_12 15))
((ch_2_13 13))
((ch_2_14 11))
((ch_2_15 10))
((ch_2_16 8))
((ch_2_17 6))
((ch_2_18 5))
((ch_2_19 3))
((ch_2_20 1))
((ch_2_21 0))
((ch_2_22 1))
((ch_2_23 11))
((ch_2_24 10))
((ch_2_25 8))
((ch_2_26 6))
((ch_2_27 5))
((ch_2_28 3))
((ch_2_29 1))
((ch_2_30 0))
((ch_3_1 20))
((ch_3_2 18))
((ch_3_3 16))
((ch_3_4 14))
((ch_3_5 12))
((ch_3_6 10))
((ch_3_7 8))
((ch_3_8 6))
((ch_3_9 4))
((ch_3_10 2))
((ch_3_11 2))
((ch_3_12 0))
((ch_3_13 8))
((ch_3_14 18))
((ch_3_15 16))
((ch_3_16 14))
((ch_3_17 14))
((ch_3_18 12))
((ch_3_19 10))
((ch_3_20 8))
((ch_3_21 18))
((ch_3_22 16))
((ch_3_23 14))
((ch_3_24 12))
((ch_3_25 10))
((ch_3_26 8))
((ch_3_27 6))
((ch_3_28 4))
((ch_3_29 2))
((ch_3_30 0))
((ch_4_1 20))
((ch_4_2 18))
((ch_4_3 17))
((ch_4_4 15))
((ch_4_5 13))
((ch_4_6 12))
((ch_4_7 10))
((ch_4_8 8))
((ch_4_9 7))
((ch_4_10 5))
((ch_4_11 3))
((ch_4_12 3))
((ch_4_13 1))
((ch_4_14 11))
((ch_4_15 10))
((ch_4_16 8))
((ch_4_17 6))
((ch_4_18 6))
((ch_4_19 15))
((ch_4_20 13))
((ch_4_21 12))
((ch_4_22 10))
((ch_4_23 8))
((ch_4_24 7))
((ch_4_25 5))
((ch_4_26 3))
((ch_4_27 5))
((ch_4_28 3))
((ch_4_29 1))
((ch_4_30 0))
((ch_5_1 20))
((ch_5_2 18))
((ch_5_3 16))
((ch_5_4 14))
((ch_5_5 12))
((ch_5_6 10))
((ch_5_7 8))
((ch_5_8 6))
((ch_5_9 6))
((ch_5_10 16))
((ch_5_11 14))
((ch_5_12 12))
((ch_5_13 10))
((ch_5_14 8))
((ch_5_15 6))
((ch_5_16 4))
((ch_5_17 2))
((ch_5_18 0))
((ch_5_19 6))
((ch_5_20 16))
((ch_5_21 14))
((ch_5_22 12))
((ch_5_23 10))
((ch_5_24 8))
((ch_5_25 6))
((ch_5_26 4))
((ch_5_27 2))
((ch_5_28 0))
((ch_5_29 2))
((ch_5_30 0))
((rechcount_1_1 0))
((rechcount_1_2 0))
((rechcount_1_3 0))
((rechcount_1_4 0))
((rechcount_1_5 0))
((rechcount_1_6 1))
((rechcount_1_7 0))
((rechcount_1_8 0))
((rechcount_1_9 0))
((rechcount_1_10 0))
((rechcount_1_11 1))
((rechcount_1_12 0))
((rechcount_1_13 1))
((rechcount_1_14 0))
((rechcount_1_15 0))
((rechcount_1_16 0))
((rechcount_1_17 0))
((rechcount_1_18 0))
((rechcount_1_19 0))
((rechcount_1_20 0))
((rechcount_1_21 0))
((rechcount_1_22 0))
((rechcount_1_23 1))
((rechcount_1_24 0))
((rechcount_1_25 0))
((rechcount_1_26 0))
((rechcount_1_27 0))
((rechcount_1_28 0))
((rechcount_1_29 0))
((rechcount_2_1 0))
((rechcount_2_2 0))
((rechcount_2_3 0))
((rechcount_2_4 0))
((rechcount_2_5 0))
((rechcount_2_6 0))
((rechcount_2_7 0))
((rechcount_2_8 0))
((rechcount_2_9 1))
((rechcount_2_10 0))
((rechcount_2_11 0))
((rechcount_2_12 0))
((rechcount_2_13 0))
((rechcount_2_14 0))
((rechcount_2_15 0))
((rechcount_2_16 0))
((rechcount_2_17 0))
((rechcount_2_18 0))
((rechcount_2_19 0))
((rechcount_2_20 0))
((rechcount_2_21 1))
((rechcount_2_22 1))
((rechcount_2_23 0))
((rechcount_2_24 0))
((rechcount_2_25 0))
((rechcount_2_26 0))
((rechcount_2_27 0))
((rechcount_2_28 0))
((rechcount_2_29 0))
((rechcount_3_1 0))
((rechcount_3_2 0))
((rechcount_3_3 0))
((rechcount_3_4 0))
((rechcount_3_5 0))
((rechcount_3_6 0))
((rechcount_3_7 0))
((rechcount_3_8 0))
((rechcount_3_9 0))
((rechcount_3_10 0))
((rechcount_3_11 0))
((rechcount_3_12 1))
((rechcount_3_13 1))
((rechcount_3_14 0))
((rechcount_3_15 0))
((rechcount_3_16 0))
((rechcount_3_17 0))
((rechcount_3_18 0))
((rechcount_3_19 0))
((rechcount_3_20 1))
((rechcount_3_21 0))
((rechcount_3_22 0))
((rechcount_3_23 0))
((rechcount_3_24 0))
((rechcount_3_25 0))
((rechcount_3_26 0))
((rechcount_3_27 0))
((rechcount_3_28 0))
((rechcount_3_29 0))
((rechcount_4_1 0))
((rechcount_4_2 0))
((rechcount_4_3 0))
((rechcount_4_4 0))
((rechcount_4_5 0))
((rechcount_4_6 0))
((rechcount_4_7 0))
((rechcount_4_8 0))
((rechcount_4_9 0))
((rechcount_4_10 0))
((rechcount_4_11 0))
((rechcount_4_12 0))
((rechcount_4_13 1))
((rechcount_4_14 0))
((rechcount_4_15 0))
((rechcount_4_16 0))
((rechcount_4_17 0))
((rechcount_4_18 1))
((rechcount_4_19 0))
((rechcount_4_20 0))
((rechcount_4_21 0))
((rechcount_4_22 0))
((rechcount_4_23 0))
((rechcount_4_24 0))
((rechcount_4_25 0))
((rechcount_4_26 1))
((rechcount_4_27 0))
((rechcount_4_28 0))
((rechcount_4_29 0))
((rechcount_5_1 0))
((rechcount_5_2 0))
((rechcount_5_3 0))
((rechcount_5_4 0))
((rechcount_5_5 0))
((rechcount_5_6 0))
((rechcount_5_7 0))
((rechcount_5_8 0))
((rechcount_5_9 1))
((rechcount_5_10 0))
((rechcount_5_11 0))
((rechcount_5_12 0))
((rechcount_5_13 0))
((rechcount_5_14 0))
((rechcount_5_15 0))
((rechcount_5_16 0))
((rechcount_5_17 0))
((rechcount_5_18 1))
((rechcount_5_19 1))
((rechcount_5_20 0))
((rechcount_5_21 0))
((rechcount_5_22 0))
((rechcount_5_23 0))
((rechcount_5_24 0))
((rechcount_5_25 0))
((rechcount_5_26 0))
((rechcount_5_27 0))
((rechcount_5_28 1))
((rechcount_5_29 0))
((waitcount_1_1 0))
((waitcount_1_2 0))
((waitcount_1_3 0))
((waitcount_1_4 0))
((waitcount_1_5 0))
((waitcount_1_6 1))
((waitcount_1_7 0))
((waitcount_1_8 0))
((waitcount_1_9 0))
((waitcount_1_10 1))
((waitcount_1_11 1))
((waitcount_1_12 0))
((waitcount_1_13 1))
((waitcount_1_14 0))
((waitcount_1_15 0))
((waitcount_1_16 0))
((waitcount_1_17 0))
((waitcount_1_18 0))
((waitcount_1_19 0))
((waitcount_1_20 0))
((waitcount_1_21 0))
((waitcount_1_22 0))
((waitcount_1_23 1))
((waitcount_1_24 0))
((waitcount_1_25 0))
((waitcount_1_26 0))
((waitcount_1_27 0))
((waitcount_1_28 0))
((waitcount_1_29 0))
((waitcount_2_1 1))
((waitcount_2_2 1))
((waitcount_2_3 0))
((waitcount_2_4 0))
((waitcount_2_5 0))
((waitcount_2_6 0))
((waitcount_2_7 0))
((waitcount_2_8 0))
((waitcount_2_9 1))
((waitcount_2_10 0))
((waitcount_2_11 0))
((waitcount_2_12 0))
((waitcount_2_13 0))
((waitcount_2_14 0))
((waitcount_2_15 0))
((waitcount_2_16 0))
((waitcount_2_17 0))
((waitcount_2_18 0))
((waitcount_2_19 0))
((waitcount_2_20 0))
((waitcount_2_21 1))
((waitcount_2_22 1))
((waitcount_2_23 0))
((waitcount_2_24 0))
((waitcount_2_25 0))
((waitcount_2_26 0))
((waitcount_2_27 0))
((waitcount_2_28 0))
((waitcount_2_29 0))
((waitcount_3_1 0))
((waitcount_3_2 0))
((waitcount_3_3 0))
((waitcount_3_4 0))
((waitcount_3_5 0))
((waitcount_3_6 0))
((waitcount_3_7 0))
((waitcount_3_8 0))
((waitcount_3_9 0))
((waitcount_3_10 1))
((waitcount_3_11 0))
((waitcount_3_12 1))
((waitcount_3_13 1))
((waitcount_3_14 0))
((waitcount_3_15 0))
((waitcount_3_16 1))
((waitcount_3_17 0))
((waitcount_3_18 0))
((waitcount_3_19 0))
((waitcount_3_20 1))
((waitcount_3_21 0))
((waitcount_3_22 0))
((waitcount_3_23 0))
((waitcount_3_24 0))
((waitcount_3_25 0))
((waitcount_3_26 0))
((waitcount_3_27 0))
((waitcount_3_28 0))
((waitcount_3_29 0))
((waitcount_4_1 0))
((waitcount_4_2 0))
((waitcount_4_3 0))
((waitcount_4_4 0))
((waitcount_4_5 0))
((waitcount_4_6 0))
((waitcount_4_7 0))
((waitcount_4_8 0))
((waitcount_4_9 0))
((waitcount_4_10 0))
((waitcount_4_11 1))
((waitcount_4_12 0))
((waitcount_4_13 1))
((waitcount_4_14 0))
((waitcount_4_15 0))
((waitcount_4_16 0))
((waitcount_4_17 1))
((waitcount_4_18 1))
((waitcount_4_19 0))
((waitcount_4_20 0))
((waitcount_4_21 0))
((waitcount_4_22 0))
((waitcount_4_23 0))
((waitcount_4_24 0))
((waitcount_4_25 0))
((waitcount_4_26 1))
((waitcount_4_27 0))
((waitcount_4_28 0))
((waitcount_4_29 0))
((waitcount_5_1 0))
((waitcount_5_2 0))
((waitcount_5_3 0))
((waitcount_5_4 0))
((waitcount_5_5 0))
((waitcount_5_6 0))
((waitcount_5_7 0))
((waitcount_5_8 1))
((waitcount_5_9 1))
((waitcount_5_10 0))
((waitcount_5_11 0))
((waitcount_5_12 0))
((waitcount_5_13 0))
((waitcount_5_14 0))
((waitcount_5_15 0))
((waitcount_5_16 0))
((waitcount_5_17 0))
((waitcount_5_18 1))
((waitcount_5_19 1))
((waitcount_5_20 0))
((waitcount_5_21 0))
((waitcount_5_22 0))
((waitcount_5_23 0))
((waitcount_5_24 0))
((waitcount_5_25 0))
((waitcount_5_26 0))
((waitcount_5_27 0))
((waitcount_5_28 1))
((waitcount_5_29 0))
((rechassigned_1_1 1))
((rechassigned_1_2 1))
((rechassigned_1_3 1))
((rechassigned_1_4 1))
((rechassigned_1_5 1))
((rechassigned_1_6 1))
((rechassigned_1_7 1))
((rechassigned_1_8 1))
((rechassigned_1_9 1))
((rechassigned_1_10 2))
((rechassigned_1_11 1))
((rechassigned_1_12 1))
((rechassigned_1_13 1))
((rechassigned_1_14 2))
((rechassigned_1_15 2))
((rechassigned_1_16 1))
((rechassigned_1_17 1))
((rechassigned_1_18 1))
((rechassigned_1_19 1))
((rechassigned_1_20 2))
((rechassigned_1_21 1))
((rechassigned_1_22 2))
((rechassigned_1_23 2))
((rechassigned_1_24 1))
((rechassigned_1_25 1))
((rechassigned_1_26 2))
((rechassigned_1_27 1))
((rechassigned_1_28 1))
((rechassigned_1_29 1))
((rechassigned_2_1 1))
((rechassigned_2_2 1))
((rechassigned_2_3 2))
((rechassigned_2_4 1))
((rechassigned_2_5 1))
((rechassigned_2_6 2))
((rechassigned_2_7 1))
((rechassigned_2_8 1))
((rechassigned_2_9 1))
((rechassigned_2_10 1))
((rechassigned_2_11 1))
((rechassigned_2_12 1))
((rechassigned_2_13 2))
((rechassigned_2_14 2))
((rechassigned_2_15 2))
((rechassigned_2_16 1))
((rechassigned_2_17 1))
((rechassigned_2_18 1))
((rechassigned_2_19 1))
((rechassigned_2_20 2))
((rechassigned_2_21 1))
((rechassigned_2_22 1))
((rechassigned_2_23 1))
((rechassigned_2_24 1))
((rechassigned_2_25 1))
((rechassigned_2_26 1))
((rechassigned_2_27 1))
((rechassigned_2_28 1))
((rechassigned_2_29 2))
((rechassigned_3_1 1))
((rechassigned_3_2 1))
((rechassigned_3_3 1))
((rechassigned_3_4 1))
((rechassigned_3_5 1))
((rechassigned_3_6 1))
((rechassigned_3_7 1))
((rechassigned_3_8 1))
((rechassigned_3_9 2))
((rechassigned_3_10 2))
((rechassigned_3_11 1))
((rechassigned_3_12 2))
((rechassigned_3_13 2))
((rechassigned_3_14 2))
((rechassigned_3_15 2))
((rechassigned_3_16 1))
((rechassigned_3_17 1))
((rechassigned_3_18 1))
((rechassigned_3_19 1))
((rechassigned_3_20 1))
((rechassigned_3_21 2))
((rechassigned_3_22 1))
((rechassigned_3_23 1))
((rechassigned_3_24 1))
((rechassigned_3_25 2))
((rechassigned_3_26 1))
((rechassigned_3_27 1))
((rechassigned_3_28 1))
((rechassigned_3_29 1))
((rechassigned_4_1 1))
((rechassigned_4_2 2))
((rechassigned_4_3 1))
((rechassigned_4_4 1))
((rechassigned_4_5 1))
((rechassigned_4_6 1))
((rechassigned_4_7 1))
((rechassigned_4_8 1))
((rechassigned_4_9 1))
((rechassigned_4_10 2))
((rechassigned_4_11 1))
((rechassigned_4_12 1))
((rechassigned_4_13 1))
((rechassigned_4_14 1))
((rechassigned_4_15 1))
((rechassigned_4_16 1))
((rechassigned_4_17 1))
((rechassigned_4_18 2))
((rechassigned_4_19 1))
((rechassigned_4_20 2))
((rechassigned_4_21 1))
((rechassigned_4_22 1))
((rechassigned_4_23 1))
((rechassigned_4_24 1))
((rechassigned_4_25 2))
((rechassigned_4_26 2))
((rechassigned_4_27 2))
((rechassigned_4_28 1))
((rechassigned_4_29 2))
((rechassigned_5_1 1))
((rechassigned_5_2 1))
((rechassigned_5_3 1))
((rechassigned_5_4 2))
((rechassigned_5_5 1))
((rechassigned_5_6 2))
((rechassigned_5_7 1))
((rechassigned_5_8 2))
((rechassigned_5_9 2))
((rechassigned_5_10 1))
((rechassigned_5_11 1))
((rechassigned_5_12 1))
((rechassigned_5_13 1))
((rechassigned_5_14 1))
((rechassigned_5_15 1))
((rechassigned_5_16 1))
((rechassigned_5_17 1))
((rechassigned_5_18 2))
((rechassigned_5_19 2))
((rechassigned_5_20 1))
((rechassigned_5_21 1))
((rechassigned_5_22 2))
((rechassigned_5_23 1))
((rechassigned_5_24 1))
((rechassigned_5_25 1))
((rechassigned_5_26 1))
((rechassigned_5_27 2))
((rechassigned_5_28 1))
((rechassigned_5_29 1))
((total_rech 0))
